39
75
60	2
57	2
56	2
55	2
54	3
53	1
51	3
50	2
49	6
48	2
47	3
45	2
44	4
43	2
41	1
40	1
39	2
38	2
37	4
36	1
35	2
34	4
31	3
30	1
29	5
28	2
27	1
26	5
25	2
24	3
23	1
22	3
21	5
20	1
19	3
18	2
17	3
16	4
15	3
